(declare-const X String)
; Everyware.*Email.*Host\x3Astepwww\x2Ekornputers\x2Ecom
(assert (str.in_re X (re.++ (str.to_re "Everyware") (re.* re.allchar) (str.to_re "Email") (re.* re.allchar) (str.to_re "Host:stepwww.kornputers.com\u{a}"))))
(check-sat)

(exit)
